12443.0 1378407.0 
12180.0 1382060.0 
12095.0 1398446.0 
12381.0 1379013.0 
12414.0 1378606.0 
12370.0 1379560.0 
12124.0 1386785.0 
12085.0 1399092.0 
12133.0 1385950.0 
12325.0 1381289.0 
12106.0 1390670.0 
12305.0 1381918.0 
12142.0 1383156.0 
12337.0 1381066.0 
